[VALIDATOR STDOUT]
Checking plan: /home/jfan5/Safety-gen/runs/benchmark/optic/grippers_20260201_172244/grippers/optic_results/grippers-n3-r32-o30-s30001.plan
Plan executed successfully - checking goal
Plan valid
Final value: 119 

Successful plans:
Value: 119
 /home/jfan5/Safety-gen/runs/benchmark/optic/grippers_20260201_172244/grippers/optic_results/grippers-n3-r32-o30-s30001.plan 119
